274
500
350	4
349	2
347	3
346	2
345	1
344	2
343	3
342	1
340	3
339	2
338	5
337	4
336	5
335	2
334	2
333	1
332	3
331	1
330	2
329	1
328	5
327	5
326	1
324	3
323	6
322	2
321	4
320	2
319	3
318	2
317	2
316	3
315	2
314	8
313	2
312	3
311	1
310	1
309	6
308	3
307	2
306	1
305	3
304	2
303	4
302	2
301	3
300	4
299	1
298	6
297	4
296	3
294	3
293	2
292	1
291	2
290	2
289	6
288	2
287	3
286	2
285	4
284	2
283	3
282	6
281	2
280	4
279	1
278	2
276	4
275	2
274	3
272	1
271	3
270	2
269	2
268	4
267	2
266	2
265	1
264	3
263	2
262	6
261	3
260	2
259	3
258	3
257	2
256	2
255	2
254	3
253	1
252	3
251	2
250	5
249	2
248	2
247	3
246	1
245	2
243	2
242	2
241	7
239	3
238	2
237	3
236	4
235	2
234	2
233	2
232	3
231	1
230	1
229	3
228	4
227	2
226	5
225	3
224	1
223	4
222	2
221	3
220	2
219	1
218	1
217	1
216	4
215	1
214	3
213	3
212	1
211	1
210	2
209	2
208	2
207	4
206	3
204	3
203	3
202	2
200	2
199	1
198	3
197	2
196	6
195	2
194	2
193	3
192	3
191	1
190	1
189	5
188	1
187	1
186	1
185	4
184	2
183	2
182	4
181	2
180	3
179	4
178	2
177	3
176	2
174	3
173	3
172	2
171	2
170	3
169	3
168	2
167	4
166	2
165	3
164	1
163	5
162	5
161	4
160	5
159	4
158	2
157	3
156	2
155	8
154	5
153	1
152	5
151	2
150	2
149	3
148	2
147	1
145	3
144	2
143	3
142	4
141	2
140	3
139	1
138	4
137	5
136	3
135	1
134	3
133	6
132	2
131	3
130	3
128	1
127	3
126	6
125	1
124	2
123	5
122	3
121	2
120	2
118	2
117	1
115	2
114	2
113	7
112	3
111	2
110	3
109	2
108	2
107	4
105	5
104	6
102	3
101	2
100	4
99	3
98	4
97	3
96	2
95	1
94	3
91	2
90	3
89	3
88	2
87	1
86	1
85	1
84	1
82	3
81	2
80	4
79	2
78	3
77	4
75	1
74	1
72	5
70	2
69	1
68	5
66	1
65	4
62	3
61	3
60	2
59	5
58	3
57	2
56	3
55	3
54	1
53	6
51	2
50	4
